(set-logic QF_S)
(declare-fun var0 () String)
(assert (str.in.re var0 (re.++ (re.+ (re.* (str.to.re "000"))) (re.++ (re.* (re.union (str.to.re "111") (str.to.re "222"))) (re.++ (re.* (re.* (str.to.re "333"))) (re.++ (re.union (re.+ (str.to.re "4")) (re.+ (str.to.re "5"))) (re.++ (re.union (re.union (str.to.re "666") (str.to.re "7")) (re.union (str.to.re "888") (str.to.re "9"))) (re.++ (re.union (re.+ (str.to.re "aa")) (re.+ (str.to.re "b"))) (re.++ (re.* (re.union (str.to.re "ccc") (str.to.re "dd"))) (re.++ (re.+ (re.+ (str.to.re "ee"))) (re.++ (re.union (re.union (str.to.re "f") (str.to.re "g")) (re.union (str.to.re "hhh") (str.to.re "ii"))) (re.++ (re.+ (re.+ (str.to.re "jjj"))) (re.++ (re.* (re.* (str.to.re "kkk"))) (re.++ (re.union (re.+ (str.to.re "lll")) (re.+ (str.to.re "mmm"))) (re.++ (re.+ (re.* (str.to.re "n"))) (re.++ (re.* (re.* (str.to.re "ooo"))) (re.++ (re.* (re.+ (str.to.re "ppp"))) (re.++ (re.+ (re.* (str.to.re "qq"))) (re.++ (re.* (re.union (str.to.re "rr") (str.to.re "s"))) (re.++ (re.* (re.* (str.to.re "t"))) (re.++ (re.union (re.+ (str.to.re "uuu")) (re.+ (str.to.re "v"))) (re.++ (re.* (re.union (str.to.re "w") (str.to.re "xxx"))) (re.* (re.union (str.to.re "y") (str.to.re "zzz")))))))))))))))))))))))))
(assert (not (str.in.re var0 (re.++ (re.* (re.+ (str.to.re "000"))) (re.++ (re.* (re.+ (str.to.re "11"))) (re.++ (re.+ (re.union (str.to.re "222") (str.to.re "3"))) (re.++ (re.* (re.* (str.to.re "4"))) (re.++ (re.* (re.+ (str.to.re "55"))) (re.++ (re.+ (re.* (str.to.re "6"))) (re.++ (re.* (re.* (str.to.re "7"))) (re.++ (re.union (re.* (str.to.re "8")) (re.* (str.to.re "999"))) (re.++ (re.+ (re.+ (str.to.re "aaa"))) (re.++ (re.+ (re.union (str.to.re "b") (str.to.re "cc"))) (re.++ (re.+ (re.+ (str.to.re "dd"))) (re.++ (re.* (re.union (str.to.re "eee") (str.to.re "fff"))) (re.++ (re.union (re.+ (str.to.re "ggg")) (re.+ (str.to.re "hh"))) (re.++ (re.+ (re.* (str.to.re "iii"))) (re.++ (re.* (re.+ (str.to.re "jjj"))) (re.++ (re.union (re.union (str.to.re "kkk") (str.to.re "l")) (re.union (str.to.re "mmm") (str.to.re "nnn"))) (re.++ (re.union (re.union (str.to.re "oo") (str.to.re "ppp")) (re.union (str.to.re "qq") (str.to.re "r"))) (re.++ (re.+ (re.* (str.to.re "sss"))) (re.++ (re.* (re.* (str.to.re "ttt"))) (re.++ (re.+ (re.+ (str.to.re "u"))) (re.+ (re.* (str.to.re "vvv"))))))))))))))))))))))))))
(check-sat)